cu-110
3.63413221
     0.70710678     0.00000000     0.00000000
     0.00000000     9.79795897     0.00000000
     0.00000000     0.00000000     6.92820323
Cu
192
Direct
     0.95799443     0.00312618     0.00000000
     0.52041063     0.68659053     0.00000000
     0.03333567     0.62301811     0.00000000
     0.48422170     0.81351358     0.00000000
     0.54033649     0.55968433     0.00000000
     0.04200557     0.49687382     0.00000000
     0.53871154     0.43467068     0.00000000
     0.03009695     0.37297455     0.00000000
     0.46128846     0.94032932     0.00000000
     0.51577830     0.31148642     0.00000000
     0.99738292     0.24992689     0.00000000
     0.96990305     0.87702545     0.00000000
     0.00261708     0.75007311     0.00000000
     0.45966351     0.06531567     0.00000000
     0.47958937     0.18840947     0.00000000
     0.96666433     0.12698189     0.00000000
     0.54493102     0.64199949     0.08333333
     0.44115602     0.02712214     0.08333333
     0.94455886     0.08885649     0.08333333
     0.49366369     0.77155523     0.08333333
     0.05544114     0.57781017     0.08333333
     0.55884398     0.51454453     0.08333333
     0.45060536     0.90083097     0.08333333
     0.94300148     0.96445166     0.08333333
     0.05699852     0.45221501     0.08333333
     0.54939464     0.39083570     0.08333333
     0.02387934     0.70680233     0.08333333
     0.45506898     0.14966718     0.08333333
     0.03326171     0.33032169     0.08333333
     0.50633631     0.27011143     0.08333333
     0.97612066     0.20986433     0.08333333
     0.96673829     0.83634498     0.08333333
     0.92479276     0.92693208     0.16666667
     0.42070411     0.99019077     0.16666667
     0.96803524     0.79541288     0.16666667
     0.43620996     0.86234226     0.16666667
     0.06413313     0.65933364     0.16666667
     0.92013405     0.05255798     0.16666667
     0.93586687     0.17399970     0.16666667
     0.47250542     0.23157526     0.16666667
     0.03196476     0.28792045     0.16666667
     0.56379004     0.34599107     0.16666667
     0.42349628     0.11400266     0.16666667
     0.07520724     0.40640126     0.16666667
     0.57929589     0.46814257     0.16666667
     0.07986595     0.53077535     0.16666667
     0.57650372     0.59433067     0.16666667
     0.52749458     0.72675808     0.16666667
     0.71717549     0.28339097     0.25000000
     0.67145361     0.66341815     0.25000000
     0.32904570     0.83729787     0.25000000
     0.15271037     0.60258940     0.25000000
     0.64468488     0.54065638     0.25000000
     0.14409227     0.47805767     0.25000000
     0.65133335     0.41475209     0.25000000
     0.84866665     0.89774791     0.25000000
     0.17095430     0.35020213     0.25000000
     0.21292045     0.72208954     0.25000000
     0.35590773     0.95944233     0.25000000
     0.78282451     0.77910903     0.25000000
     0.28707955     0.21541046     0.25000000
     0.85531512     0.02184362     0.25000000
     0.82854639     0.14908185     0.25000000
     0.34728963     0.08491060     0.25000000
     0.20501765     0.67938662     0.33333333
     0.74376407     0.74010762     0.33333333
     0.28573605     0.80088122     0.33333333
     0.67899687     0.61851800     0.33333333
     0.16494955     0.55699207     0.33333333
     0.33505045     0.04717460     0.33333333
     0.82100313     0.11064866     0.33333333
     0.75623593     0.23905905     0.33333333
     0.33345800     0.92258829     0.33333333
     0.66090364     0.49468882     0.33333333
     0.16654200     0.43157838     0.33333333
     0.83909636     0.98447784     0.33333333
     0.68344353     0.36766867     0.33333333
     0.21426395     0.30328545     0.33333333
     0.29498235     0.17478005     0.33333333
     0.81655647     0.86149800     0.33333333
     0.82754738     0.94519472     0.41666667
     0.31498954     0.88348398     0.41666667
     0.79166498     0.82200529     0.41666667
     0.32956192     0.00750361     0.41666667
     0.72571210     0.69854989     0.41666667
     0.25971771     0.76032910     0.41666667
     0.30263728     0.13386701     0.41666667
     0.77428790     0.19728344     0.41666667
     0.24028229     0.26050424     0.41666667
     0.70833502     0.32382804     0.41666667
     0.82130113     0.07046934     0.41666667
     0.67245262     0.45063861     0.41666667
     0.17043808     0.51332973     0.41666667
     0.67869887     0.57536400     0.41666667
     0.19736272     0.63696633     0.41666667
     0.18501046     0.38734935     0.41666667
     0.19736272     0.34529966     0.50000000
     0.24028229     0.71883757     0.50000000
     0.70833502     0.65716137     0.50000000
     0.30263728     0.84220034     0.50000000
     0.18501046     0.59568269     0.50000000
     0.67245262     0.53397194     0.50000000
     0.17043808     0.47166306     0.50000000
     0.67869887     0.40869733     0.50000000
     0.82130113     0.90380267     0.50000000
     0.72571210     0.28188322     0.50000000
     0.32956192     0.96583694     0.50000000
     0.77428790     0.78061678     0.50000000
     0.82754738     0.02852806     0.50000000
     0.31498954     0.09181731     0.50000000
     0.25971771     0.21866243     0.50000000
     0.79166498     0.15533863     0.50000000
     0.21426395     0.67828545     0.58333333
     0.29498235     0.79978005     0.58333333
     0.68344353     0.61766867     0.58333333
     0.16654200     0.55657838     0.58333333
     0.33345800     0.04758829     0.58333333
     0.81655647     0.11149800     0.58333333
     0.82100313     0.86064866     0.58333333
     0.75623593     0.73905905     0.58333333
     0.66090364     0.49468882     0.58333333
     0.16494955     0.43199207     0.58333333
     0.83909636     0.98447784     0.58333333
     0.67899687     0.36851800     0.58333333
     0.20501765     0.30438662     0.58333333
     0.28573605     0.17588122     0.58333333
     0.74376407     0.24010762     0.58333333
     0.33505045     0.92217460     0.58333333
     0.85531512     0.93851029     0.66666667
     0.35590773     0.00110899     0.66666667
     0.82854639     0.81574852     0.66666667
     0.34728963     0.87657727     0.66666667
     0.71717549     0.70005764     0.66666667
     0.28707955     0.75707713     0.66666667
     0.32904570     0.12896454     0.66666667
     0.78282451     0.19577569     0.66666667
     0.21292045     0.26375620     0.66666667
     0.67145361     0.33008482     0.66666667
     0.84866665     0.06441458     0.66666667
     0.64468488     0.45732304     0.66666667
     0.14409227     0.51972434     0.66666667
     0.65133335     0.58141876     0.66666667
     0.17095430     0.64186879     0.66666667
     0.15271037     0.39425606     0.66666667
     0.02749458     0.24759141     0.75000000
     0.97250542     0.75240859     0.75000000
     0.43586687     0.81983303     0.75000000
     0.57520724     0.55223459     0.75000000
     0.07929589     0.48897590     0.75000000
     0.57986595     0.42660868     0.75000000
     0.07650372     0.36516401     0.75000000
     0.56413313     0.30516697     0.75000000
     0.92349628     0.88483599     0.75000000
     0.53196476     0.68375378     0.75000000
     0.46803524     0.19124622     0.75000000
     0.93620996     0.13317560     0.75000000
     0.92070411     0.01102410     0.75000000
     0.42013405     0.94839132     0.75000000
     0.42479276     0.07276541     0.75000000
     0.06379004     0.61682440     0.75000000
     0.46673829     0.14884498     0.83333333
     0.94115602     0.96462214     0.83333333
     0.04939464     0.57833570     0.83333333
     0.55699852     0.51471501     0.83333333
     0.44300148     0.02695166     0.83333333
     0.47612066     0.77236433     0.83333333
     0.55544114     0.39031017     0.83333333
     0.05884398     0.45204453     0.83333333
     0.95060536     0.08833097     0.83333333
     0.44455886     0.90135649     0.83333333
     0.53326171     0.64282169     0.83333333
     0.04493102     0.32949949     0.83333333
     0.52387934     0.26930233     0.83333333
     0.00633631     0.70761143     0.83333333
     0.95506898     0.83716718     0.83333333
     0.99366369     0.20905523     0.83333333
     0.46666433     0.85614856     0.91666667
     0.97958937     0.79257614     0.91666667
     0.49738292     0.72909355     0.91666667
     0.53333567     0.35218477     0.91666667
     0.53009695     0.60214122     0.91666667
     0.03871154     0.53883735     0.91666667
     0.54200557     0.47604049     0.91666667
     0.04033649     0.41385099     0.91666667
     0.02041063     0.29075720     0.91666667
     0.50261708     0.22923978     0.91666667
     0.98422170     0.16768025     0.91666667
     0.46990305     0.10619212     0.91666667
     0.96128846     0.04449599     0.91666667
     0.95966351     0.91948234     0.91666667
     0.01577830     0.66565308     0.91666667
     0.45799443     0.98229285     0.91666667
