cu-110
3.63413221
     1.22474487     0.00000000     0.00000000
     0.00000000     5.65685425     0.00000000
     0.00000000     0.00000000     6.92820323
Cu
192
Direct
     0.00000000     0.99985457     0.99949285
     0.50000000     0.68757324     0.00268796
     0.00000000     0.62516980     0.00224301
     0.50000000     0.81233020     0.00224301
     0.50000000     0.56267597     0.00146630
     0.00000000     0.50014543     0.00050715
     0.50000000     0.43764543     0.99949285
     0.00000000     0.37517597     0.99853370
     0.50000000     0.93735457     0.00050715
     0.50000000     0.31266980     0.99775699
     0.00000000     0.25007324     0.99731204
     0.00000000     0.87482403     0.00146630
     0.00000000     0.74992676     0.00268796
     0.50000000     0.06232403     0.99853370
     0.50000000     0.18742676     0.99731204
     0.00000000     0.12483020     0.99775699
     0.16666667     0.68688800     0.08688721
     0.16666667     0.06555756     0.08156548
     0.66666667     0.00376992     0.08274181
     0.16666667     0.81438265     0.08618109
     0.66666667     0.49623008     0.08392486
     0.16666667     0.55944244     0.08510118
     0.16666667     0.94126992     0.08392486
     0.66666667     0.87805756     0.08510118
     0.66666667     0.37194244     0.08156548
     0.16666667     0.43373008     0.08274181
     0.66666667     0.62311735     0.08618109
     0.16666667     0.18811200     0.07977946
     0.66666667     0.24938800     0.07977946
     0.16666667     0.31061735     0.08048557
     0.66666667     0.12688265     0.08048557
     0.66666667     0.75061200     0.08688721
     0.33333333     0.88737658     0.16812361
     0.83333333     0.95163900     0.16712393
     0.33333333     0.75308849     0.17049557
     0.83333333     0.82113250     0.16933583
     0.33333333     0.61636750     0.16933583
     0.33333333     0.01413900     0.16620941
     0.33333333     0.13363250     0.16399750
     0.83333333     0.19058849     0.16283776
     0.33333333     0.24691151     0.16283776
     0.83333333     0.30386750     0.16399750
     0.83333333     0.07487658     0.16520973
     0.33333333     0.36262342     0.16520973
     0.83333333     0.42336100     0.16620941
     0.33333333     0.48586100     0.16712393
     0.83333333     0.55012342     0.16812361
     0.83333333     0.68441151     0.17049557
     0.00000000     0.32016153     0.24759381
     0.00000000     0.69024741     0.25351849
     0.50000000     0.86407581     0.25128140
     0.50000000     0.63266153     0.25240619
     0.00000000     0.57342419     0.25128140
     0.50000000     0.51242643     0.25039566
     0.00000000     0.44992643     0.24960434
     0.00000000     0.92507357     0.25039566
     0.50000000     0.38592419     0.24871860
     0.50000000     0.74725259     0.25351849
     0.50000000     0.98757357     0.24960434
     0.00000000     0.80483847     0.25240619
     0.50000000     0.25274741     0.24648151
     0.00000000     0.05157581     0.24871860
     0.00000000     0.18475259     0.24648151
     0.50000000     0.11733847     0.24759381
     0.16666667     0.74974425     0.33590666
     0.66666667     0.68775575     0.33590666
     0.16666667     0.87345471     0.33454782
     0.66666667     0.56404529     0.33454782
     0.16666667     0.62586982     0.33535111
     0.16666667     0.12413018     0.33131555
     0.66666667     0.06095471     0.33211885
     0.66666667     0.18724425     0.33076000
     0.16666667     0.99801098     0.33293582
     0.66666667     0.43948902     0.33293582
     0.16666667     0.50198902     0.33373084
     0.66666667     0.93551098     0.33373084
     0.66666667     0.31336982     0.33131555
     0.16666667     0.37654529     0.33211885
     0.16666667     0.25025575     0.33076000
     0.66666667     0.81163018     0.33535111
     0.33333333     0.93930691     0.41682411
     0.83333333     0.87659689     0.41713251
     0.33333333     0.81363109     0.41740261
     0.83333333     0.00180691     0.41650922
     0.33333333     0.68708622     0.41756867
     0.83333333     0.75041378     0.41756867
     0.83333333     0.12613109     0.41593072
     0.33333333     0.18791378     0.41576467
     0.83333333     0.24958622     0.41576467
     0.33333333     0.31136891     0.41593072
     0.33333333     0.06409689     0.41620082
     0.33333333     0.43569309     0.41650922
     0.83333333     0.49819309     0.41682411
     0.33333333     0.56090311     0.41713251
     0.83333333     0.62386891     0.41740261
     0.83333333     0.37340311     0.41620082
     0.50000000     0.37340311     0.50046585
     0.50000000     0.75041378     0.49909800
     0.00000000     0.68708622     0.49909800
     0.50000000     0.87659689     0.49953415
     0.50000000     0.62386891     0.49926405
     0.00000000     0.56090311     0.49953415
     0.50000000     0.49819309     0.49984255
     0.00000000     0.43569309     0.50015745
     0.00000000     0.93930691     0.49984255
     0.00000000     0.31136891     0.50073595
     0.50000000     0.00180691     0.50015745
     0.00000000     0.81363109     0.49926405
     0.00000000     0.06409689     0.50046585
     0.50000000     0.12613109     0.50073595
     0.50000000     0.24958622     0.50090200
     0.00000000     0.18791378     0.50090200
     0.16666667     0.74974425     0.58076000
     0.16666667     0.87345471     0.58211885
     0.66666667     0.56404529     0.58211885
     0.16666667     0.62586982     0.58131555
     0.16666667     0.12413018     0.58535111
     0.66666667     0.06095471     0.58454782
     0.66666667     0.81163018     0.58131555
     0.66666667     0.68775575     0.58076000
     0.66666667     0.43948902     0.58373084
     0.16666667     0.50198902     0.58293582
     0.66666667     0.93551098     0.58293582
     0.66666667     0.31336982     0.58535111
     0.16666667     0.37654529     0.58454782
     0.16666667     0.25025575     0.58590666
     0.66666667     0.18724425     0.58590666
     0.16666667     0.99801098     0.58373084
     0.33333333     0.92507357     0.66627100
     0.83333333     0.98757357     0.66706233
     0.33333333     0.80483847     0.66426048
     0.83333333     0.86407581     0.66538526
     0.33333333     0.69024741     0.66314818
     0.83333333     0.74725259     0.66314818
     0.83333333     0.11733847     0.66907286
     0.33333333     0.18475259     0.67018515
     0.83333333     0.25274741     0.67018515
     0.33333333     0.32016153     0.66907286
     0.33333333     0.05157581     0.66794807
     0.33333333     0.44992643     0.66706233
     0.83333333     0.51242643     0.66627100
     0.33333333     0.57342419     0.66538526
     0.83333333     0.63266153     0.66426048
     0.83333333     0.38592419     0.66794807
     0.00000000     0.24691151     0.75382891
     0.00000000     0.75308849     0.74617109
     0.50000000     0.82113250     0.74733083
     0.50000000     0.55012342     0.74854306
     0.00000000     0.48586100     0.74954274
     0.50000000     0.42336100     0.75045726
     0.00000000     0.36262342     0.75145694
     0.50000000     0.30386750     0.75266917
     0.00000000     0.88737658     0.74854306
     0.50000000     0.68441151     0.74617109
     0.50000000     0.19058849     0.75382891
     0.00000000     0.13363250     0.75266917
     0.00000000     0.01413900     0.75045726
     0.50000000     0.95163900     0.74954274
     0.50000000     0.07487658     0.75145694
     0.00000000     0.61636750     0.74733083
     0.16666667     0.18811200     0.83688721
     0.66666667     0.87805756     0.83156548
     0.66666667     0.49623008     0.83274181
     0.16666667     0.55944244     0.83156548
     0.16666667     0.06555756     0.83510118
     0.16666667     0.81438265     0.83048557
     0.16666667     0.43373008     0.83392486
     0.66666667     0.37194244     0.83510118
     0.66666667     0.00376992     0.83392486
     0.16666667     0.94126992     0.83274181
     0.16666667     0.68688800     0.82977946
     0.66666667     0.24938800     0.83688721
     0.16666667     0.31061735     0.83618109
     0.66666667     0.62311735     0.83048557
     0.66666667     0.75061200     0.82977946
     0.66666667     0.12688265     0.83618109
     0.83333333     0.81233020     0.91442366
     0.33333333     0.74992676     0.91397871
     0.83333333     0.68757324     0.91397871
     0.83333333     0.31266980     0.91890968
     0.83333333     0.56267597     0.91520037
     0.33333333     0.50014543     0.91615951
     0.83333333     0.43764543     0.91717382
     0.33333333     0.37517597     0.91813296
     0.33333333     0.25007324     0.91935462
     0.83333333     0.18742676     0.91935462
     0.33333333     0.12483020     0.91890968
     0.83333333     0.06232403     0.91813296
     0.33333333     0.99985457     0.91717382
     0.33333333     0.87482403     0.91520037
     0.33333333     0.62516980     0.91442366
     0.83333333     0.93735457     0.91615951
