cu-110
3.63413221
     1.22474487     0.00000000     0.00000000
     0.00000000     5.65685425     0.00000000
     0.00000000     0.00000000     6.92820323
Cu
192
Direct
     0.98062680     0.99992946     0.99987280
     0.50576236     0.68755273     0.00130774
     0.01250576     0.62508948     0.00103702
     0.49067079     0.81242278     0.00119554
     0.51724566     0.56258428     0.00061905
     0.01937320     0.50007054     0.00012720
     0.51865802     0.43757604     0.99962172
     0.01517428     0.37509051     0.99915838
     0.48134198     0.93742396     0.00037828
     0.50932921     0.31257722     0.99880446
     0.00194893     0.25001877     0.99863400
     0.98482572     0.87490949     0.00084162
     0.99805107     0.74998123     0.00136600
     0.48275434     0.06241572     0.99938095
     0.49423764     0.18744727     0.99869226
     0.98749424     0.12491052     0.99896298
     0.17803458     0.68703798     0.08504999
     0.13398651     0.06414632     0.08259504
     0.63035761     0.00192059     0.08318546
     0.14841943     0.81328089     0.08487040
     0.70297572     0.49807941     0.08348120
     0.19934683     0.56085368     0.08407163
     0.13156444     0.93932644     0.08377697
     0.63762868     0.87639638     0.08436041
     0.69570466     0.37360362     0.08230626
     0.20176889     0.43567356     0.08288970
     0.69086526     0.62390059     0.08463264
     0.15529875     0.18796202     0.08161668
     0.67052991     0.24984769     0.08151917
     0.18491390     0.31171911     0.08179627
     0.64246807     0.12609941     0.08203403
     0.66280342     0.75015231     0.08514749
     0.27704504     0.88081722     0.16753588
     0.76885271     0.94443519     0.16701299
     0.32463012     0.75077619     0.16865757
     0.79482243     0.81619150     0.16816404
     0.38217839     0.62011903     0.16784007
     0.26736119     0.00714944     0.16655303
     0.28448828     0.12988097     0.16549327
     0.80835171     0.18979418     0.16486838
     0.34203655     0.24922381     0.16467577
     0.87184424     0.30880850     0.16516929
     0.77198132     0.06899676     0.16607163
     0.38962163     0.36918278     0.16579745
     0.89781395     0.43056481     0.16632035
     0.39930548     0.49285056     0.16678031
     0.89468534     0.55600324     0.16726170
     0.85831495     0.68520582     0.16846495
     0.72372407     0.28329043     0.24835314
     0.70938734     0.65952952     0.25135787
     0.30167336     0.83942332     0.25105119
     0.19026563     0.59889199     0.25076897
     0.68125381     0.53734966     0.25030049
     0.17959191     0.47503062     0.24990183
     0.68471663     0.41197659     0.24947942
     0.81528337     0.90052341     0.25052058
     0.19832664     0.34807668     0.24894881
     0.24085974     0.71944050     0.25183340
     0.32040809     0.96246938     0.25009817
     0.77627593     0.77920957     0.25164686
     0.25914026     0.21805950     0.24816660
     0.81874619     0.02515034     0.24969951
     0.79061266     0.15297048     0.24864213
     0.30973437     0.08860801     0.24923103
     0.91217990     0.71881280     0.33464994
     0.39542164     0.65660098     0.33443001
     0.94489858     0.84322852     0.33424703
     0.37548487     0.53220739     0.33363259
     0.88271542     0.59444301     0.33404430
     0.95061792     0.09305699     0.33262236
     0.45784847     0.03029261     0.33303408
     0.43791169     0.15589902     0.33223666
     0.95929760     0.96773278     0.33343247
     0.37838244     0.40709473     0.33282969
     0.87403573     0.46976722     0.33323420
     0.45495089     0.90540527     0.33383698
     0.40345236     0.28144706     0.33209490
     0.88843475     0.34427148     0.33241964
     0.92115343     0.21868720     0.33201672
     0.42988097     0.78105294     0.33457176
     0.11023938     0.90708574     0.41686190
     0.60280274     0.84438665     0.41700426
     0.09228783     0.78155570     0.41710383
     0.61359465     0.96966270     0.41670606
     0.06882441     0.65576381     0.41706177
     0.58030610     0.71864561     0.41712614
     0.60698356     0.09450303     0.41639715
     0.09784226     0.15673619     0.41627156
     0.58636057     0.21885439     0.41620720
     0.07437883     0.28094430     0.41622950
     0.11246541     0.03213779     0.41654876
     0.05642729     0.40541426     0.41647143
     0.55307201     0.46783730     0.41662727
     0.05420126     0.53036221     0.41678457
     0.55968311     0.59299697     0.41693619
     0.56386392     0.34311335     0.41632907
     0.23053059     0.34311335     0.50033759
     0.24697276     0.71864561     0.49954053
     0.73549107     0.65576381     0.49960490
     0.26946941     0.84438665     0.49966241
     0.22634978     0.59299697     0.49973048
     0.72086792     0.53036221     0.49988210
     0.21973868     0.46783730     0.50003939
     0.72309395     0.40541426     0.50019523
     0.77690605     0.90708574     0.49980477
     0.74104550     0.28094430     0.50043717
     0.28026132     0.96966270     0.49996061
     0.75895450     0.78155570     0.49956283
     0.77913208     0.03213779     0.50011790
     0.27365022     0.09450303     0.50026952
     0.25302724     0.21885439     0.50045947
     0.76450893     0.15673619     0.50039510
     0.91217990     0.71881280     0.58201672
     0.94489858     0.84322852     0.58241964
     0.37548487     0.53220739     0.58303408
     0.88271542     0.59444301     0.58262236
     0.95061792     0.09305699     0.58404430
     0.45784847     0.03029261     0.58363259
     0.42988097     0.78105294     0.58209490
     0.39542164     0.65660098     0.58223666
     0.37838244     0.40709473     0.58383698
     0.87403573     0.46976722     0.58343247
     0.45495089     0.90540527     0.58282969
     0.40345236     0.28144706     0.58457176
     0.88843475     0.34427148     0.58424703
     0.92115343     0.21868720     0.58464994
     0.43791169     0.15589902     0.58443001
     0.95929760     0.96773278     0.58323420
     0.14861670     0.90052341     0.66614608
     0.65374142     0.96246938     0.66656850
     0.10960926     0.77920957     0.66501980
     0.63500670     0.83942332     0.66561548
     0.04272068     0.65952952     0.66530879
     0.57419307     0.71944050     0.66483327
     0.64306770     0.08860801     0.66743564
     0.12394599     0.15297048     0.66802454
     0.59247360     0.21805950     0.66850007
     0.05705740     0.28329043     0.66831353
     0.15207953     0.02515034     0.66696716
     0.01804997     0.41197659     0.66718725
     0.51292525     0.47503062     0.66676483
     0.01458714     0.53734966     0.66636618
     0.52359897     0.59889199     0.66589770
     0.53165997     0.34807668     0.66771785
     0.00870322     0.24922381     0.75199090
     0.99129678     0.75077619     0.74800910
     0.46148909     0.81619150     0.74850263
     0.56135201     0.55600324     0.74940496
     0.06597215     0.49285056     0.74988636
     0.56448062     0.43056481     0.75034632
     0.05628829     0.36918278     0.75086922
     0.53851091     0.30880850     0.75149737
     0.94371171     0.88081722     0.74913078
     0.52498162     0.68520582     0.74820172
     0.47501838     0.18979418     0.75179828
     0.95115494     0.12988097     0.75117340
     0.93402785     0.00714944     0.75011364
     0.43551938     0.94443519     0.74965368
     0.43864799     0.06899676     0.75059504
     0.04884506     0.62011903     0.74882660
     0.15529875     0.18796202     0.83504999
     0.63762868     0.87639638     0.83230626
     0.70297572     0.49807941     0.83318546
     0.19934683     0.56085368     0.83259504
     0.13398651     0.06414632     0.83407163
     0.14841943     0.81328089     0.83179627
     0.20176889     0.43567356     0.83377697
     0.69570466     0.37360362     0.83436041
     0.63035761     0.00192059     0.83348120
     0.13156444     0.93932644     0.83288970
     0.17803458     0.68703798     0.83161668
     0.67052991     0.24984769     0.83514749
     0.18491390     0.31171911     0.83487040
     0.69086526     0.62390059     0.83203403
     0.66280342     0.75015231     0.83151917
     0.64246807     0.12609941     0.83463264
     0.82400412     0.81242278     0.91547113
     0.33138440     0.74998123     0.91530067
     0.83909569     0.68755273     0.91535892
     0.84266254     0.31257722     0.91786221
     0.85057900     0.56258428     0.91604762
     0.35270654     0.50007054     0.91653947
     0.85199136     0.43757604     0.91704495
     0.34850761     0.37509051     0.91750829
     0.33528226     0.25001877     0.91803267
     0.82757097     0.18744727     0.91797441
     0.32082758     0.12491052     0.91770369
     0.81608767     0.06241572     0.91728572
     0.31396013     0.99992946     0.91679387
     0.31815906     0.87490949     0.91582504
     0.34583909     0.62508948     0.91562964
     0.81467531     0.93742396     0.91628839
