cu-110
3.63413221
     0.70710678     0.00000000     0.00000000
     0.00000000     9.79795897     0.00000000
     0.00000000     0.00000000     6.92820323
Cu
192
Direct
     0.91663285     0.00000000     0.00000000
     0.54649898     0.68750000     0.00000000
     0.06984069     0.62500000     0.00000000
     0.47522091     0.81250000     0.00000000
     0.58172748     0.56250000     0.00000000
     0.08336715     0.50000000     0.00000000
     0.57501658     0.43750000     0.00000000
     0.05559439     0.37500000     0.00000000
     0.42498342     0.93750000     0.00000000
     0.52477909     0.31250000     0.00000000
     0.98739981     0.25000000     0.00000000
     0.94440561     0.87500000     0.00000000
     0.01260019     0.75000000     0.00000000
     0.41827252     0.06250000     0.00000000
     0.45350102     0.18750000     0.00000000
     0.93015931     0.12500000     0.00000000
     0.59450978     0.64583333     0.08333333
     0.38258359     0.02083333     0.08333333
     0.88771570     0.08333333     0.08333333
     0.50000000     0.77083333     0.08333333
     0.11228430     0.58333333     0.08333333
     0.61741641     0.52083333     0.08333333
     0.40549022     0.89583333     0.08333333
     0.88771570     0.95833333     0.08333333
     0.11228430     0.45833333     0.08333333
     0.59450978     0.39583333     0.08333333
     0.05763735     0.70833333     0.08333333
     0.40549022     0.14583333     0.08333333
     0.05763735     0.33333333     0.08333333
     0.50000000     0.27083333     0.08333333
     0.94236265     0.20833333     0.08333333
     0.94236265     0.83333333     0.08333333
     0.85107292     0.91666667     0.16666667
     0.34197676     0.97916667     0.16666667
     0.95882032     0.79166667     0.16666667
     0.37932689     0.85416667     0.16666667
     0.13364693     0.66666667     0.16666667
     0.84093812     0.04166667     0.16666667
     0.86635307     0.16666667     0.16666667
     0.42405898     0.22916667     0.16666667
     0.04117968     0.29166667     0.16666667
     0.62067311     0.35416667     0.16666667
     0.34675623     0.10416667     0.16666667
     0.14892708     0.41666667     0.16666667
     0.65802324     0.47916667     0.16666667
     0.15906188     0.54166667     0.16666667
     0.65324377     0.60416667     0.16666667
     0.57594102     0.72916667     0.16666667
     0.54830868     0.25000000     0.25000000
     0.30802555     0.62500000     0.25000000
     0.09006941     0.81250000     0.25000000
     0.78973346     0.56250000     0.25000000
     0.28734273     0.50000000     0.25000000
     0.79982569     0.43750000     0.25000000
     0.33323041     0.37500000     0.25000000
     0.66676959     0.87500000     0.25000000
     0.90993059     0.31250000     0.25000000
     0.85208672     0.68750000     0.25000000
     0.20017431     0.93750000     0.25000000
     0.45169132     0.75000000     0.25000000
     0.14791328     0.18750000     0.25000000
     0.71265727     0.00000000     0.25000000
     0.69197445     0.12500000     0.25000000
     0.21026654     0.06250000     0.25000000
     0.86162011     0.64583333     0.33333333
     0.41843032     0.70833333     0.33333333
     0.00000000     0.77083333     0.33333333
     0.33083951     0.58333333     0.33333333
     0.82121504     0.52083333     0.33333333
     0.17878496     0.02083333     0.33333333
     0.66916049     0.08333333     0.33333333
     0.58156968     0.20833333     0.33333333
     0.13837989     0.89583333     0.33333333
     0.33083951     0.45833333     0.33333333
     0.86162011     0.39583333     0.33333333
     0.66916049     0.95833333     0.33333333
     0.41843032     0.33333333     0.33333333
     0.00000000     0.27083333     0.33333333
     0.13837989     0.14583333     0.33333333
     0.58156968     0.83333333     0.33333333
     0.63190071     0.91666667     0.41666667
     0.08640210     0.85416667     0.41666667
     0.52315260     0.79166667     0.41666667
     0.15614961     0.97916667     0.41666667
     0.39613725     0.66666667     0.41666667
     0.95435551     0.72916667     0.41666667
     0.14234874     0.10416667     0.41666667
     0.60386275     0.16666667     0.41666667
     0.04564449     0.22916667     0.41666667
     0.47684740     0.29166667     0.41666667
     0.65957017     0.04166667     0.41666667
     0.36809929     0.41666667     0.41666667
     0.84385039     0.47916667     0.41666667
     0.34042983     0.54166667     0.41666667
     0.85765126     0.60416667     0.41666667
     0.91359790     0.35416667     0.41666667
     0.95435551     0.31250000     0.50000000
     0.91359790     0.68750000     0.50000000
     0.36809929     0.62500000     0.50000000
     0.04564449     0.81250000     0.50000000
     0.84385039     0.56250000     0.50000000
     0.34042983     0.50000000     0.50000000
     0.85765126     0.43750000     0.50000000
     0.39613725     0.37500000     0.50000000
     0.60386275     0.87500000     0.50000000
     0.52315260     0.25000000     0.50000000
     0.14234874     0.93750000     0.50000000
     0.47684740     0.75000000     0.50000000
     0.65957017     0.00000000     0.50000000
     0.15614961     0.06250000     0.50000000
     0.08640210     0.18750000     0.50000000
     0.63190071     0.12500000     0.50000000
     0.86162011     0.64583333     0.58333333
     0.00000000     0.77083333     0.58333333
     0.33083951     0.58333333     0.58333333
     0.82121504     0.52083333     0.58333333
     0.17878496     0.02083333     0.58333333
     0.66916049     0.08333333     0.58333333
     0.58156968     0.83333333     0.58333333
     0.41843032     0.70833333     0.58333333
     0.33083951     0.45833333     0.58333333
     0.86162011     0.39583333     0.58333333
     0.66916049     0.95833333     0.58333333
     0.41843032     0.33333333     0.58333333
     0.00000000     0.27083333     0.58333333
     0.13837989     0.14583333     0.58333333
     0.58156968     0.20833333     0.58333333
     0.13837989     0.89583333     0.58333333
     0.69197445     0.91666667     0.66666667
     0.21026654     0.97916667     0.66666667
     0.54830868     0.79166667     0.66666667
     0.14791328     0.85416667     0.66666667
     0.33323041     0.66666667     0.66666667
     0.90993059     0.72916667     0.66666667
     0.20017431     0.10416667     0.66666667
     0.66676959     0.16666667     0.66666667
     0.09006941     0.22916667     0.66666667
     0.45169132     0.29166667     0.66666667
     0.71265727     0.04166667     0.66666667
     0.30802555     0.41666667     0.66666667
     0.78973346     0.47916667     0.66666667
     0.28734273     0.54166667     0.66666667
     0.79982569     0.60416667     0.66666667
     0.85208672     0.35416667     0.66666667
     0.95882032     0.25000000     0.75000000
     0.04117968     0.75000000     0.75000000
     0.42405898     0.81250000     0.75000000
     0.65802324     0.56250000     0.75000000
     0.15906188     0.50000000     0.75000000
     0.65324377     0.43750000     0.75000000
     0.13364693     0.37500000     0.75000000
     0.57594102     0.31250000     0.75000000
     0.86635307     0.87500000     0.75000000
     0.62067311     0.68750000     0.75000000
     0.37932689     0.18750000     0.75000000
     0.85107292     0.12500000     0.75000000
     0.84093812     0.00000000     0.75000000
     0.34675623     0.93750000     0.75000000
     0.34197676     0.06250000     0.75000000
     0.14892708     0.62500000     0.75000000
     0.40549022     0.14583333     0.83333333
     0.88771570     0.95833333     0.83333333
     0.11228430     0.58333333     0.83333333
     0.61741641     0.52083333     0.83333333
     0.38258359     0.02083333     0.83333333
     0.50000000     0.77083333     0.83333333
     0.59450978     0.39583333     0.83333333
     0.11228430     0.45833333     0.83333333
     0.88771570     0.08333333     0.83333333
     0.40549022     0.89583333     0.83333333
     0.59450978     0.64583333     0.83333333
     0.05763735     0.33333333     0.83333333
     0.50000000     0.27083333     0.83333333
     0.05763735     0.70833333     0.83333333
     0.94236265     0.83333333     0.83333333
     0.94236265     0.20833333     0.83333333
     0.45350102     0.85416667     0.91666667
     0.98739981     0.79166667     0.91666667
     0.52477909     0.72916667     0.91666667
     0.54649898     0.35416667     0.91666667
     0.57501658     0.60416667     0.91666667
     0.08336715     0.54166667     0.91666667
     0.58172748     0.47916667     0.91666667
     0.06984069     0.41666667     0.91666667
     0.01260019     0.29166667     0.91666667
     0.47522091     0.22916667     0.91666667
     0.94440561     0.16666667     0.91666667
     0.42498342     0.10416667     0.91666667
     0.91663285     0.04166667     0.91666667
     0.93015931     0.91666667     0.91666667
     0.05559439     0.66666667     0.91666667
     0.41827252     0.97916667     0.91666667
