cufcc
3.6341322117
     1.41421356     0.00000000     0.00000000
     0.00000000     1.22474487     0.00000000
     0.00000000     0.00000000     3.46410162
Cu
23
Direct
     0.25000000     0.50000000     0.00000000
     0.25000000     0.16666667     0.16666667
     0.00000000     0.66666667     0.16666667
     0.00000000     0.33333333     0.33333333
     0.25000000     0.83333333     0.33333333
     0.50000000     0.00000000     0.00000000
     0.75000000     0.50000000     0.00000000
     0.75000000     0.16666667     0.16666667
     0.50000000     0.66666667     0.16666667
     0.50000000     0.33333333     0.33333333
     0.75000000     0.83333333     0.33333333
     0.00000000     0.00000000     0.50000000
     0.25000000     0.50000000     0.50000000
     0.25000000     0.16666667     0.66666667
     0.00000000     0.66666667     0.66666667
     0.00000000     0.33333333     0.83333333
     0.25000000     0.83333333     0.83333333
     0.50000000     0.00000000     0.50000000
     0.75000000     0.50000000     0.50000000
     0.75000000     0.16666667     0.66666667
     0.50000000     0.66666667     0.66666667
     0.50000000     0.33333333     0.83333333
     0.75000000     0.83333333     0.83333333
