cufcc
3.6341322117
     1.41421356     0.00000000     0.00000000
     0.00000000     1.22474487     0.00000000
     0.00000000     0.00000000     5.19615242
Cu
24
Direct
     0.00000000     0.00000000     0.00000000
     0.25000000     0.50000000     0.00000000
     0.25000000     0.16666667     0.11111111
     0.00000000     0.66666667     0.11111111
     0.00000000     0.33333333     0.22222222
     0.25000000     0.83333333     0.22222222
     0.50000000     0.00000000     0.00000000
     0.75000000     0.50000000     0.00000000
     0.75000000     0.16666667     0.11111111
     0.50000000     0.66666667     0.11111111
     0.50000000     0.33333333     0.22222222
     0.75000000     0.83333333     0.22222222
     0.00000000     0.00000000     0.33333333
     0.25000000     0.50000000     0.33333333
     0.25000000     0.16666667     0.44444444
     0.00000000     0.66666667     0.44444444
     0.00000000     0.33333333     0.55555556
     0.25000000     0.83333333     0.55555556
     0.50000000     0.00000000     0.33333333
     0.75000000     0.50000000     0.33333333
     0.75000000     0.16666667     0.44444444
     0.50000000     0.66666667     0.44444444
     0.50000000     0.33333333     0.55555556
     0.75000000     0.83333333     0.55555556
