cufcc-gamma
3.63413221
     0.61237244    -0.35355339     0.00000000
     0.61237244     0.35355339     0.00000000
     0.00000000     0.00000000     6.92820323
Cu
12
Selective dynamics
Direct
     0.00000000     0.00000000     0.00000000 F F T
     0.33333333     0.33333333     0.08333333 F F T
     0.66666667     0.66666667     0.16666667 F F T
     0.00000000     0.00000000     0.25000000 F F T
     0.33333333     0.33333333     0.33333333 F F T
     0.66666667     0.66666667     0.41666667 F F T
     0.12500000    -0.12500000     0.50000000 F F T
     0.45833333     0.20833333     0.58333333 F F T
     0.79166667     0.54166667     0.66666667 F F T
     0.12500000    -0.12500000     0.75000000 F F T
     0.45833333     0.20833333     0.83333333 F F T
     0.79166667     0.54166667     0.91666667 F F T
