cufcc-gamma
3.63413221
     0.61237244    -0.35355339     0.00000000
     0.61237244     0.35355339     0.00000000
     0.00000000     0.00000000    11.25833025
Cu
12
Selective dynamics
Direct
     0.00000000     0.00000000     0.00000000 F F T
     0.33333333     0.33333333     0.05128205 F F T
     0.66666667     0.66666667     0.10256410 F F T
     0.00000000     0.00000000     0.15384615 F F T
     0.33333333     0.33333333     0.20512821 F F T
     0.66666667     0.66666667     0.25641026 F F T
     0.00000000     0.00000000     0.30769231 F F T
     0.33333333     0.33333333     0.35897436 F F T
     0.66666667     0.66666667     0.41025641 F F T
     0.00000000     0.00000000     0.46153846 F F T
     0.33333333     0.33333333     0.51282051 F F T
     0.66666667     0.66666667     0.56410256 F F T
